 53 19 99 62 88 93 34 72 42 65 39 79  9 26 72 29 36 48 57 95
 93 79 88 77 94 39 74 46 17 30 62 77 43 98 48 14 45 25 98 30
 90 92 35 13 75 55 80 67  3 93 54 67 25 77 38 98 96 20 15 36
 65 97 27 25 61 24 97 61 75 92 73 21 29  3 96 51 26 44 56 31
 64 38 44 46 66 31 48 27 82 51 90 63 85 36 69 67 81 18 81 72